
Gurobi 9.1.2 (win64) logging started Tue Dec  7 13:11:20 2021

Gurobi Optimizer version 9.1.2 build v9.1.2rc0 (win64)
Thread count: 8 physical cores, 8 logical processors, using up to 8 threads
Optimize a model with 1 rows, 34 columns and 33 nonzeros
Model fingerprint: 0xcaf4e77e
Variable types: 1 continuous, 33 integer (33 binary)
Coefficient statistics:
  Matrix range     [1e+00, 1e+01]
  Objective range  [1e+00, 1e+00]
  Bounds range     [9e+00, 9e+00]
  RHS range        [1e+01, 1e+01]
Presolve time: 0.00s
Presolved: 1 rows, 34 columns, 33 nonzeros
Variable types: 1 continuous, 33 integer (33 binary)

Root simplex log...

Iteration    Objective       Primal Inf.    Dual Inf.      Time
       0   -9.3026094e+00   2.624139e-01   0.000000e+00     15s
       5   -9.3026094e+00   0.000000e+00   0.000000e+00     15s

Root relaxation: objective -9.302609e+00, 5 iterations, 0.00 seconds

    Nodes    |    Current Node    |     Objective Bounds      |     Work
 Expl Unexpl |  Obj  Depth IntInf | Incumbent    BestBd   Gap | It/Node Time

     0     0   -8.28850    0    2          -   -8.28850      -     -   14s
H    0     0                       0.7551828   -8.28850  1198%     -   15s
H    0     0                       0.6631606   -8.28850  1350%     -   16s
     0     0   -5.82022    0    6    0.66316   -5.82022   978%     -   16s
H    0     0                       0.6631606   -5.82022   978%     -   17s
     0     0   -5.32728    0    8    0.66316   -5.32728   903%     -   17s
H    0     0                       0.6551384   -5.32728   913%     -   17s
H    0     0                       0.6542377   -5.32728   914%     -   17s
H    0     0                       0.6542377   -5.32728   914%     -   17s
     0     0   -4.63717    0    8    0.65424   -4.63717   809%     -   17s
     0     0   -4.57798    0    9    0.65424   -4.57798   800%     -   17s
     0     0   -4.54193    0    8    0.65424   -4.54193   794%     -   17s
     0     0   -4.53258    0    7    0.65424   -4.53258   793%     -   17s
     0     0   -4.50265    0    8    0.65424   -4.50265   788%     -   17s
     0     0   -4.48712    0    7    0.65424   -4.48712   786%     -   18s
     0     0   -4.48064    0    7    0.65424   -4.48064   785%     -   18s
     0     0   -4.37703    0    9    0.65424   -4.37703   769%     -   18s
     0     0   -4.37595    0   10    0.65424   -4.37595   769%     -   18s
     0     0   -4.33694    0   10    0.65424   -4.33694   763%     -   18s
     0     0   -4.28048    0   10    0.65424   -4.28048   754%     -   18s
     0     0   -4.27899    0   10    0.65424   -4.27899   754%     -   18s
     0     0   -4.27409    0   10    0.65424   -4.27409   753%     -   18s
     0     2   -3.70014    0   11    0.65424   -3.70014   666%     -   18s
*   49     6               8       0.6539766   -2.38257   464%   4.3   18s
*   63     1               9       0.5444264    0.53737  1.30%   4.1   19s

Cutting planes:
  MIR: 12
  Lazy constraints: 37

Explored 66 nodes (341 simplex iterations) in 19.05 seconds
Thread count was 8 (of 8 available processors)

Solution count 6: 0.544426 0.653977 0.654238 ... 0.755183

Optimal solution found (tolerance 1.00e-04)
Best objective 5.444263507635e-01, best bound 5.444263507635e-01, gap 0.0000%

User-callback calls 354, time in user-callback 22.64 sec
